12
cyclic water tetramer geometry optimized with MP2/aug-cc-pVDZ
O  1.94283460  0.00126497  0.00526927
H  1.35032448 -0.78571329 -0.00406636
H  2.52383320 -0.13307017  0.76402004
O -1.94283477 -0.00126483  0.00526972
H -1.35032393  0.78571303 -0.00406623
H -2.52383443  0.13306764  0.76401989
O  0.00126702 -1.94283448 -0.00526956
H -0.78571134 -1.35032314  0.00406626
H -0.13306697 -2.52383451 -0.76401910
O -0.00126622  1.94283522 -0.00527011
H  0.78571208  1.35032366  0.00406575
H  0.13306627  2.52383590 -0.76401959
